  9	66
 22
  0	 14	 42	 30	108	 26	 80	 96	 54	 18	 92	 84	120	 12	 41	 35	107	 78	 50	101	116	133	
 14
  0	 51	 21	117	 11	 87	 77	 24	 53	119	 37	103	 90	133	
 16
  0	 47	  5	 71	113	 28	 17	 10	 94	 19	 76	 61	 83	 85	127	133	
 16
  0	 52	 39	118	 29	 22	105	 63	 88	 57	129	 66	 95	123	132	133	
 18
  0	 20	 86	 65	131	  8	 74	 45	111	  9	 58	 27	 49	124	 93	 75	115	133	
 14
  0	 13	  1	 79	 67	 15	 64	 46	 81	 38	130	112	104	133	
 22
  0	 59	 60	126	  6	125	  2	 62	 72	  7	128	 68	 40	 31	 25	 73	106	 91	 36	 97	102	133	
 16
  0	 33	  3	 69	 44	 34	 32	100	110	 56	 99	 98	 23	122	 89	133	
 12
  0	 55	 43	121	  4	 16	109	 70	 82	 48	114	133	
